system Si
1
0.5 0.5 0.0
0.0 0.5 0.5
0.5 0.0 0.5
2

Si
8

cart
0.00 0.00 0.00
0.25 0.25 0.25
