New structure
10.938    
	0.5	0.0	0.5
	0.5	0.5	0.0
	0.0	0.5	0.5
   Si
    16
Direct
	0.000000      0.000000      0.000000 
	0.000000      0.000000      0.500000 
	0.000000      0.500000      0.000000 
	0.000000      0.500000      0.500000 
	0.500000      0.000000      0.000000 
	0.500000      0.000000      0.500000 
	0.500000      0.500000      0.000000 
	0.500000      0.500000      0.500000 
	0.125000      0.125000      0.125000 
	0.125000      0.125000      0.625000 
	0.125000      0.625000      0.125000 
	0.125000      0.625000      0.625000 
	0.625000      0.125000      0.125000 
	0.625000      0.125000      0.625000 
	0.625000      0.625000      0.125000 
	0.625000      0.625000      0.625000 
