Si2
1.0
        3.8669700623         0.0000000000         0.0000000000
        0.0000000000         3.8669700623         0.0000000000
        0.0000000000         0.0000000000         3.8669700623
   Si
    8
Direct
     0.000000000         0.000000000         0.000000000
     0.000000000         0.500000000         0.500000000
     0.500000000         0.500000000         0.000000000
     0.500000000         0.000000000         0.500000000
     0.750000000         0.250000000         0.750000000
     0.250000000         0.250000000         0.250000000
     0.250000000         0.750000000         0.750000000
     0.750000000         0.750000000         0.250000000
