global _chemical_name MyName
1.0
       16.0079898834         0.0000000000         0.0000000000
        8.0039949417        13.8633259026         0.0000000000
        8.0039949417         4.6211086342        13.0704690073
   Ga    B   As
   58    6   64
Direct
     0.250000000         0.250000000         0.250000000
     0.500000000         0.250000000         0.250000000
     0.750000000         0.250000000         0.250000000
     0.000000000         0.250000000         0.250000000
     0.250000000         0.500000000         0.250000000
     0.500000000         0.500000000         0.250000000
     0.750000000         0.500000000         0.250000000
     0.000000000         0.500000000         0.250000000
     0.250000000         0.750000000         0.250000000
     0.500000000         0.750000000         0.250000000
     0.750000000         0.750000000         0.250000000
     0.000000000         0.750000000         0.250000000
     0.250000000         0.000000000         0.250000000
     0.500000000         0.000000000         0.250000000
     0.750000000         0.000000000         0.250000000
     0.000000000         0.000000000         0.250000000
     0.250000000         0.250000000         0.500000000
     0.500000000         0.250000000         0.500000000
     0.750000000         0.250000000         0.500000000
     0.000000000         0.250000000         0.500000000
     0.250000000         0.500000000         0.500000000
     0.500000000         0.500000000         0.500000000
     0.750000000         0.500000000         0.500000000
     0.000000000         0.500000000         0.500000000
     0.250000000         0.750000000         0.500000000
     0.500000000         0.750000000         0.500000000
     0.750000000         0.750000000         0.500000000
     0.000000000         0.750000000         0.500000000
     0.250000000         0.000000000         0.500000000
     0.500000000         0.000000000         0.500000000
     0.000000000         0.000000000         0.500000000
     0.250000000         0.250000000         0.750000000
     0.000000000         0.250000000         0.750000000
     0.250000000         0.500000000         0.750000000
     0.500000000         0.500000000         0.750000000
     0.000000000         0.500000000         0.750000000
     0.500000000         0.750000000         0.750000000
     0.750000000         0.750000000         0.750000000
     0.000000000         0.750000000         0.750000000
     0.250000000         0.000000000         0.750000000
     0.500000000         0.000000000         0.750000000
     0.750000000         0.000000000         0.750000000
     0.000000000         0.000000000         0.750000000
     0.250000000         0.250000000         0.000000000
     0.500000000         0.250000000         0.000000000
     0.750000000         0.250000000         0.000000000
     0.000000000         0.250000000         0.000000000
     0.250000000         0.500000000         0.000000000
     0.500000000         0.500000000         0.000000000
     0.750000000         0.500000000         0.000000000
     0.000000000         0.500000000         0.000000000
     0.250000000         0.750000000         0.000000000
     0.500000000         0.750000000         0.000000000
     0.750000000         0.750000000         0.000000000
     0.000000000         0.750000000         0.000000000
     0.250000000         0.000000000         0.000000000
     0.500000000         0.000000000         0.000000000
     0.000000000         0.000000000         0.000000000
     0.750000000         0.000000000         0.500000000
     0.500000000         0.250000000         0.750000000
     0.750000000         0.250000000         0.750000000
     0.750000000         0.500000000         0.750000000
     0.250000000         0.750000000         0.750000000
     0.750000000         0.000000000         0.000000000
     0.062500000         0.062500000         0.062500000
     0.312500000         0.062500000         0.062500000
     0.562500000         0.062500000         0.062500000
     0.812500000         0.062500000         0.062500000
     0.062500000         0.312500000         0.062500000
     0.312500000         0.312500000         0.062500000
     0.562500000         0.312500000         0.062500000
     0.812500000         0.312500000         0.062500000
     0.062500000         0.562500000         0.062500000
     0.312500000         0.562500000         0.062500000
     0.562500000         0.562500000         0.062500000
     0.812500000         0.562500000         0.062500000
     0.062500000         0.812500000         0.062500000
     0.312500000         0.812500000         0.062500000
     0.562500000         0.812500000         0.062500000
     0.812500000         0.812500000         0.062500000
     0.062500000         0.062500000         0.312500000
     0.312500000         0.062500000         0.312500000
     0.562500000         0.062500000         0.312500000
     0.812500000         0.062500000         0.312500000
     0.062500000         0.312500000         0.312500000
     0.312500000         0.312500000         0.312500000
     0.562500000         0.312500000         0.312500000
     0.812500000         0.312500000         0.312500000
     0.062500000         0.562500000         0.312500000
     0.312500000         0.562500000         0.312500000
     0.562500000         0.562500000         0.312500000
     0.812500000         0.562500000         0.312500000
     0.062500000         0.812500000         0.312500000
     0.312500000         0.812500000         0.312500000
     0.562500000         0.812500000         0.312500000
     0.812500000         0.812500000         0.312500000
     0.062500000         0.062500000         0.562500000
     0.312500000         0.062500000         0.562500000
     0.562500000         0.062500000         0.562500000
     0.812500000         0.062500000         0.562500000
     0.062500000         0.312500000         0.562500000
     0.312500000         0.312500000         0.562500000
     0.562500000         0.312500000         0.562500000
     0.812500000         0.312500000         0.562500000
     0.062500000         0.562500000         0.562500000
     0.312500000         0.562500000         0.562500000
     0.562500000         0.562500000         0.562500000
     0.812500000         0.562500000         0.562500000
     0.062500000         0.812500000         0.562500000
     0.312500000         0.812500000         0.562500000
     0.562500000         0.812500000         0.562500000
     0.812500000         0.812500000         0.562500000
     0.062500000         0.062500000         0.812500000
     0.312500000         0.062500000         0.812500000
     0.562500000         0.062500000         0.812500000
     0.812500000         0.062500000         0.812500000
     0.062500000         0.312500000         0.812500000
     0.312500000         0.312500000         0.812500000
     0.562500000         0.312500000         0.812500000
     0.812500000         0.312500000         0.812500000
     0.062500000         0.562500000         0.812500000
     0.312500000         0.562500000         0.812500000
     0.562500000         0.562500000         0.812500000
     0.812500000         0.562500000         0.812500000
     0.062500000         0.812500000         0.812500000
     0.312500000         0.812500000         0.812500000
     0.562500000         0.812500000         0.812500000
     0.812500000         0.812500000         0.812500000
