New structure
5.468763845696758
        0.5	0.0	0.5
	0.5	0.5	0.0
	0.0	0.5	0.5
   Si
    2
Direct
     0.000000000         0.000000000         0.000000000
     0.250000000         0.250000000         0.250000000
