global _chemical_name MyName
1.0
       16.0079898834         0.0000000000         0.0000000000
        8.0039949417        13.8633259026         0.0000000000
        8.0039949417         4.6211086342        13.0704690073
   Ga    B   As
   58    6   64
Cartesian
     8.003994942         4.621108634         3.267617252
    12.005992413         4.621108634         3.267617252
    16.007989883         4.621108634         3.267617252
     4.001997471         4.621108634         3.267617252
    10.004993677         8.086940110         3.267617252
    14.006991148         8.086940110         3.267617252
    18.008988619         8.086940110         3.267617252
     6.002996206         8.086940110         3.267617252
    12.005992413        11.552771585         3.267617252
    16.007989883        11.552771585         3.267617252
    20.009987354        11.552771585         3.267617252
     8.003994942        11.552771585         3.267617252
     6.002996206         1.155277159         3.267617252
    10.004993677         1.155277159         3.267617252
    14.006991148         1.155277159         3.267617252
     2.000998735         1.155277159         3.267617252
    10.004993677         5.776385793         6.535234504
    14.006991148         5.776385793         6.535234504
    18.008988619         5.776385793         6.535234504
     6.002996206         5.776385793         6.535234504
    12.005992413         9.242217268         6.535234504
    16.007989883         9.242217268         6.535234504
    20.009987354         9.242217268         6.535234504
     8.003994942         9.242217268         6.535234504
    14.006991148        12.708048744         6.535234504
    18.008988619        12.708048744         6.535234504
    22.010986090        12.708048744         6.535234504
    10.004993677        12.708048744         6.535234504
     8.003994942         2.310554317         6.535234504
    12.005992413         2.310554317         6.535234504
     4.001997471         2.310554317         6.535234504
    12.005992413         6.931662951         9.802851756
     8.003994942         6.931662951         9.802851756
    14.006991148        10.397494427         9.802851756
    18.008988619        10.397494427         9.802851756
    10.004993677        10.397494427         9.802851756
    20.009987354        13.863325903         9.802851756
    24.011984825        13.863325903         9.802851756
    12.005992413        13.863325903         9.802851756
    10.004993677         3.465831476         9.802851756
    14.006991148         3.465831476         9.802851756
    18.008988619         3.465831476         9.802851756
     6.002996206         3.465831476         9.802851756
     6.002996206         3.465831476         0.000000000
    10.004993677         3.465831476         0.000000000
    14.006991148         3.465831476         0.000000000
     2.000998735         3.465831476         0.000000000
     8.003994942         6.931662951         0.000000000
    12.005992413         6.931662951         0.000000000
    16.007989883         6.931662951         0.000000000
     4.001997471         6.931662951         0.000000000
    10.004993677        10.397494427         0.000000000
    14.006991148        10.397494427         0.000000000
    18.008988619        10.397494427         0.000000000
     6.002996206        10.397494427         0.000000000
     4.001997471         0.000000000         0.000000000
     8.003994942         0.000000000         0.000000000
     0.000000000         0.000000000         0.000000000
    16.007989883         2.310554317         6.535234504
    16.007989883         6.931662951         9.802851756
    20.009987354         6.931662951         9.802851756
    22.010986090        10.397494427         9.802851756
    16.007989883        13.863325903         9.802851756
    12.005992413         0.000000000         0.000000000
     2.000998735         1.155277159         0.816904313
     6.002996206         1.155277159         0.816904313
    10.004993677         1.155277159         0.816904313
    14.006991148         1.155277159         0.816904313
     4.001997471         4.621108634         0.816904313
     8.003994942         4.621108634         0.816904313
    12.005992413         4.621108634         0.816904313
    16.007989883         4.621108634         0.816904313
     6.002996206         8.086940110         0.816904313
    10.004993677         8.086940110         0.816904313
    14.006991148         8.086940110         0.816904313
    18.008988619         8.086940110         0.816904313
     8.003994942        11.552771585         0.816904313
    12.005992413        11.552771585         0.816904313
    16.007989883        11.552771585         0.816904313
    20.009987354        11.552771585         0.816904313
     4.001997471         2.310554317         4.084521565
     8.003994942         2.310554317         4.084521565
    12.005992413         2.310554317         4.084521565
    16.007989883         2.310554317         4.084521565
     6.002996206         5.776385793         4.084521565
    10.004993677         5.776385793         4.084521565
    14.006991148         5.776385793         4.084521565
    18.008988619         5.776385793         4.084521565
     8.003994942         9.242217268         4.084521565
    12.005992413         9.242217268         4.084521565
    16.007989883         9.242217268         4.084521565
    20.009987354         9.242217268         4.084521565
    10.004993677        12.708048744         4.084521565
    14.006991148        12.708048744         4.084521565
    18.008988619        12.708048744         4.084521565
    22.010986090        12.708048744         4.084521565
     6.002996206         3.465831476         7.352138817
    10.004993677         3.465831476         7.352138817
    14.006991148         3.465831476         7.352138817
    18.008988619         3.465831476         7.352138817
     8.003994942         6.931662951         7.352138817
    12.005992413         6.931662951         7.352138817
    16.007989883         6.931662951         7.352138817
    20.009987354         6.931662951         7.352138817
    10.004993677        10.397494427         7.352138817
    14.006991148        10.397494427         7.352138817
    18.008988619        10.397494427         7.352138817
    22.010986090        10.397494427         7.352138817
    12.005992413        13.863325903         7.352138817
    16.007989883        13.863325903         7.352138817
    20.009987354        13.863325903         7.352138817
    24.011984825        13.863325903         7.352138817
     8.003994942         4.621108634        10.619756068
    12.005992413         4.621108634        10.619756068
    16.007989883         4.621108634        10.619756068
    20.009987354         4.621108634        10.619756068
    10.004993677         8.086940110        10.619756068
    14.006991148         8.086940110        10.619756068
    18.008988619         8.086940110        10.619756068
    22.010986090         8.086940110        10.619756068
    12.005992413        11.552771585        10.619756068
    16.007989883        11.552771585        10.619756068
    20.009987354        11.552771585        10.619756068
    24.011984825        11.552771585        10.619756068
    14.006991148        15.018603061        10.619756068
    18.008988619        15.018603061        10.619756068
    22.010986090        15.018603061        10.619756068
    26.012983561        15.018603061        10.619756068
